p edge 150 3353
e 1 7
e 1 10
e 1 18
e 1 26
e 1 28
e 1 38
e 1 49
e 1 50
e 1 51
e 1 54
e 1 60
e 1 71
e 1 72
e 1 81
e 1 83
e 1 85
e 1 97
e 1 101
e 1 104
e 1 106
e 1 107
e 1 113
e 1 114
e 1 115
e 1 117
e 1 120
e 1 122
e 1 123
e 1 124
e 1 127
e 1 129
e 1 130
e 1 131
e 1 132
e 1 133
e 1 138
e 1 141
e 1 147
e 1 148
e 1 150
e 2 7
e 2 13
e 2 27
e 2 28
e 2 30
e 2 31
e 2 32
e 2 33
e 2 35
e 2 38
e 2 40
e 2 54
e 2 58
e 2 60
e 2 61
e 2 63
e 2 64
e 2 65
e 2 69
e 2 74
e 2 76
e 2 78
e 2 80
e 2 81
e 2 86
e 2 90
e 2 92
e 2 94
e 2 95
e 2 97
e 2 99
e 2 102
e 2 104
e 2 105
e 2 107
e 2 115
e 2 119
e 2 124
e 2 130
e 2 134
e 2 138
e 2 144
e 2 149
e 3 5
e 3 7
e 3 9
e 3 12
e 3 16
e 3 18
e 3 22
e 3 24
e 3 26
e 3 36
e 3 43
e 3 45
e 3 46
e 3 50
e 3 56
e 3 60
e 3 65
e 3 67
e 3 68
e 3 71
e 3 74
e 3 75
e 3 78
e 3 83
e 3 87
e 3 89
e 3 92
e 3 93
e 3 94
e 3 95
e 3 98
e 3 99
e 3 105
e 3 106
e 3 110
e 3 111
e 3 112
e 3 114
e 3 119
e 3 121
e 3 123
e 3 132
e 3 133
e 3 139
e 4 9
e 4 14
e 4 16
e 4 33
e 4 35
e 4 41
e 4 43
e 4 48
e 4 49
e 4 51
e 4 52
e 4 58
e 4 60
e 4 67
e 4 70
e 4 73
e 4 76
e 4 80
e 4 83
e 4 85
e 4 92
e 4 93
e 4 99
e 4 111
e 4 112
e 4 113
e 4 115
e 4 123
e 4 128
e 4 132
e 4 134
e 4 135
e 4 140
e 4 142
e 4 145
e 4 146
e 4 150
e 5 8
e 5 10
e 5 12
e 5 19
e 5 30
e 5 34
e 5 45
e 5 53
e 5 54
e 5 58
e 5 61
e 5 62
e 5 64
e 5 69
e 5 73
e 5 81
e 5 87
e 5 90
e 5 95
e 5 96
e 5 97
e 5 99
e 5 100
e 5 107
e 5 109
e 5 112
e 5 116
e 5 117
e 5 119
e 5 120
e 5 121
e 5 131
e 5 134
e 5 136
e 5 140
e 5 142
e 5 143
e 5 145
e 5 147
e 5 149
e 6 13
e 6 14
e 6 15
e 6 18
e 6 25
e 6 32
e 6 39
e 6 41
e 6 42
e 6 46
e 6 47
e 6 53
e 6 57
e 6 61
e 6 62
e 6 65
e 6 66
e 6 72
e 6 75
e 6 76
e 6 78
e 6 80
e 6 82
e 6 85
e 6 89
e 6 93
e 6 95
e 6 101
e 6 102
e 6 107
e 6 110
e 6 112
e 6 116
e 6 124
e 6 126
e 6 132
e 6 133
e 6 141
e 6 146
e 6 147
e 7 11
e 7 15
e 7 17
e 7 26
e 7 27
e 7 39
e 7 40
e 7 42
e 7 49
e 7 53
e 7 55
e 7 56
e 7 58
e 7 61
e 7 62
e 7 66
e 7 67
e 7 69
e 7 70
e 7 74
e 7 76
e 7 77
e 7 82
e 7 85
e 7 89
e 7 93
e 7 98
e 7 100
e 7 106
e 7 116
e 7 118
e 7 121
e 7 123
e 7 125
e 7 129
e 7 133
e 7 134
e 7 137
e 7 138
e 7 142
e 7 145
e 8 13
e 8 15
e 8 16
e 8 19
e 8 21
e 8 22
e 8 23
e 8 25
e 8 32
e 8 33
e 8 35
e 8 38
e 8 42
e 8 43
e 8 46
e 8 48
e 8 56
e 8 57
e 8 67
e 8 76
e 8 82
e 8 90
e 8 93
e 8 94
e 8 96
e 8 97
e 8 99
e 8 105
e 8 110
e 8 115
e 8 117
e 8 127
e 8 128
e 8 129
e 8 135
e 8 138
e 8 143
e 8 144
e 8 145
e 8 146
e 9 12
e 9 14
e 9 15
e 9 17
e 9 19
e 9 21
e 9 27
e 9 30
e 9 35
e 9 37
e 9 41
e 9 43
e 9 52
e 9 53
e 9 58
e 9 61
e 9 62
e 9 64
e 9 66
e 9 68
e 9 72
e 9 73
e 9 78
e 9 80
e 9 82
e 9 86
e 9 94
e 9 96
e 9 97
e 9 98
e 9 100
e 9 103
e 9 107
e 9 110
e 9 113
e 9 119
e 9 120
e 9 121
e 9 122
e 9 126
e 9 127
e 9 131
e 9 136
e 9 138
e 9 139
e 9 141
e 9 142
e 9 144
e 9 146
e 9 147
e 9 149
e 10 15
e 10 18
e 10 20
e 10 21
e 10 27
e 10 32
e 10 33
e 10 38
e 10 42
e 10 44
e 10 46
e 10 47
e 10 51
e 10 53
e 10 57
e 10 59
e 10 67
e 10 68
e 10 69
e 10 73
e 10 75
e 10 78
e 10 81
e 10 83
e 10 84
e 10 86
e 10 92
e 10 93
e 10 98
e 10 101
e 10 102
e 10 103
e 10 105
e 10 106
e 10 107
e 10 108
e 10 110
e 10 118
e 10 120
e 10 121
e 10 124
e 10 126
e 10 127
e 10 130
e 10 135
e 10 138
e 10 139
e 10 141
e 10 142
e 10 145
e 10 148
e 11 15
e 11 25
e 11 28
e 11 41
e 11 44
e 11 45
e 11 46
e 11 50
e 11 53
e 11 58
e 11 67
e 11 73
e 11 74
e 11 77
e 11 81
e 11 82
e 11 87
e 11 89
e 11 90
e 11 94
e 11 111
e 11 117
e 11 120
e 11 122
e 11 124
e 11 125
e 11 126
e 11 127
e 11 128
e 11 133
e 11 134
e 11 138
e 11 140
e 11 141
e 11 142
e 11 144
e 11 147
e 11 148
e 11 150
e 12 23
e 12 24
e 12 26
e 12 29
e 12 40
e 12 42
e 12 51
e 12 53
e 12 57
e 12 58
e 12 60
e 12 62
e 12 63
e 12 67
e 12 69
e 12 75
e 12 79
e 12 83
e 12 84
e 12 86
e 12 88
e 12 91
e 12 94
e 12 98
e 12 104
e 12 112
e 12 114
e 12 115
e 12 116
e 12 119
e 12 121
e 12 127
e 12 128
e 12 130
e 12 132
e 12 134
e 12 137
e 12 138
e 12 141
e 12 146
e 12 148
e 12 150
e 13 17
e 13 19
e 13 20
e 13 21
e 13 26
e 13 28
e 13 30
e 13 32
e 13 34
e 13 35
e 13 44
e 13 45
e 13 46
e 13 48
e 13 51
e 13 56
e 13 58
e 13 63
e 13 66
e 13 67
e 13 71
e 13 77
e 13 82
e 13 91
e 13 92
e 13 93
e 13 94
e 13 95
e 13 96
e 13 99
e 13 103
e 13 104
e 13 109
e 13 119
e 13 122
e 13 129
e 13 131
e 13 132
e 13 133
e 13 134
e 13 136
e 13 144
e 13 145
e 13 146
e 13 147
e 14 19
e 14 20
e 14 21
e 14 25
e 14 26
e 14 27
e 14 28
e 14 30
e 14 33
e 14 38
e 14 44
e 14 45
e 14 49
e 14 50
e 14 52
e 14 54
e 14 59
e 14 61
e 14 63
e 14 65
e 14 72
e 14 76
e 14 79
e 14 83
e 14 84
e 14 89
e 14 97
e 14 101
e 14 103
e 14 114
e 14 117
e 14 118
e 14 120
e 14 121
e 14 122
e 14 124
e 14 127
e 14 128
e 14 131
e 14 139
e 14 142
e 14 143
e 14 144
e 14 147
e 14 149
e 14 150
e 15 16
e 15 18
e 15 22
e 15 33
e 15 38
e 15 40
e 15 44
e 15 50
e 15 51
e 15 56
e 15 61
e 15 65
e 15 67
e 15 71
e 15 75
e 15 77
e 15 84
e 15 86
e 15 89
e 15 92
e 15 93
e 15 95
e 15 96
e 15 99
e 15 103
e 15 104
e 15 105
e 15 107
e 15 109
e 15 119
e 15 122
e 15 129
e 15 148
e 15 149
e 16 23
e 16 29
e 16 35
e 16 43
e 16 45
e 16 47
e 16 49
e 16 51
e 16 64
e 16 73
e 16 85
e 16 91
e 16 96
e 16 98
e 16 99
e 16 101
e 16 102
e 16 105
e 16 108
e 16 112
e 16 113
e 16 114
e 16 115
e 16 123
e 16 127
e 16 149
e 17 21
e 17 22
e 17 24
e 17 26
e 17 28
e 17 33
e 17 37
e 17 42
e 17 46
e 17 47
e 17 51
e 17 54
e 17 55
e 17 62
e 17 65
e 17 66
e 17 68
e 17 70
e 17 71
e 17 72
e 17 81
e 17 82
e 17 89
e 17 90
e 17 92
e 17 96
e 17 99
e 17 101
e 17 102
e 17 103
e 17 106
e 17 107
e 17 110
e 17 112
e 17 114
e 17 115
e 17 116
e 17 117
e 17 118
e 17 119
e 17 121
e 17 122
e 17 125
e 17 128
e 17 129
e 17 130
e 17 131
e 17 140
e 17 142
e 17 143
e 17 145
e 17 147
e 17 148
e 18 22
e 18 23
e 18 24
e 18 28
e 18 33
e 18 37
e 18 39
e 18 41
e 18 43
e 18 48
e 18 50
e 18 51
e 18 57
e 18 62
e 18 64
e 18 69
e 18 72
e 18 79
e 18 84
e 18 86
e 18 87
e 18 89
e 18 93
e 18 96
e 18 102
e 18 109
e 18 112
e 18 114
e 18 117
e 18 120
e 18 125
e 18 128
e 18 129
e 18 134
e 18 135
e 18 136
e 18 139
e 18 144
e 18 147
e 19 24
e 19 29
e 19 32
e 19 36
e 19 42
e 19 46
e 19 49
e 19 52
e 19 54
e 19 55
e 19 56
e 19 61
e 19 69
e 19 70
e 19 71
e 19 72
e 19 74
e 19 75
e 19 78
e 19 84
e 19 90
e 19 93
e 19 94
e 19 98
e 19 103
e 19 108
e 19 111
e 19 115
e 19 116
e 19 117
e 19 118
e 19 119
e 19 120
e 19 124
e 19 126
e 19 128
e 19 130
e 19 131
e 19 136
e 19 137
e 19 139
e 19 144
e 19 146
e 19 147
e 20 22
e 20 23
e 20 25
e 20 28
e 20 33
e 20 35
e 20 41
e 20 43
e 20 46
e 20 52
e 20 63
e 20 66
e 20 77
e 20 78
e 20 81
e 20 84
e 20 90
e 20 92
e 20 98
e 20 103
e 20 104
e 20 107
e 20 114
e 20 117
e 20 118
e 20 132
e 20 136
e 20 140
e 20 141
e 20 142
e 20 147
e 20 150
e 21 25
e 21 30
e 21 32
e 21 34
e 21 37
e 21 39
e 21 48
e 21 49
e 21 53
e 21 55
e 21 59
e 21 66
e 21 72
e 21 79
e 21 84
e 21 87
e 21 89
e 21 91
e 21 92
e 21 93
e 21 102
e 21 105
e 21 106
e 21 108
e 21 117
e 21 118
e 21 119
e 21 126
e 21 136
e 21 138
e 21 139
e 21 143
e 21 145
e 21 149
e 22 23
e 22 25
e 22 31
e 22 35
e 22 41
e 22 42
e 22 50
e 22 54
e 22 56
e 22 64
e 22 67
e 22 75
e 22 80
e 22 84
e 22 85
e 22 92
e 22 98
e 22 102
e 22 104
e 22 107
e 22 111
e 22 116
e 22 118
e 22 121
e 22 123
e 22 128
e 22 131
e 22 133
e 22 141
e 22 144
e 22 146
e 22 147
e 22 148
e 23 27
e 23 35
e 23 36
e 23 37
e 23 38
e 23 39
e 23 50
e 23 51
e 23 52
e 23 53
e 23 64
e 23 65
e 23 68
e 23 69
e 23 70
e 23 73
e 23 78
e 23 80
e 23 82
e 23 90
e 23 92
e 23 94
e 23 95
e 23 100
e 23 101
e 23 104
e 23 106
e 23 107
e 23 108
e 23 109
e 23 113
e 23 118
e 23 124
e 23 125
e 23 126
e 23 127
e 23 136
e 23 138
e 23 139
e 23 140
e 23 143
e 23 144
e 23 145
e 23 149
e 24 25
e 24 26
e 24 28
e 24 30
e 24 31
e 24 33
e 24 35
e 24 44
e 24 45
e 24 47
e 24 50
e 24 51
e 24 52
e 24 54
e 24 56
e 24 58
e 24 60
e 24 64
e 24 69
e 24 71
e 24 72
e 24 77
e 24 79
e 24 81
e 24 83
e 24 85
e 24 92
e 24 94
e 24 95
e 24 98
e 24 99
e 24 100
e 24 101
e 24 105
e 24 117
e 24 123
e 24 126
e 24 128
e 24 132
e 24 135
e 24 136
e 24 147
e 24 148
e 24 149
e 25 26
e 25 27
e 25 36
e 25 38
e 25 39
e 25 42
e 25 43
e 25 46
e 25 47
e 25 50
e 25 56
e 25 58
e 25 59
e 25 61
e 25 62
e 25 65
e 25 71
e 25 84
e 25 88
e 25 90
e 25 91
e 25 92
e 25 96
e 25 98
e 25 99
e 25 103
e 25 106
e 25 108
e 25 113
e 25 118
e 25 119
e 25 121
e 25 123
e 25 127
e 25 128
e 25 134
e 25 136
e 25 144
e 25 149
e 26 27
e 26 28
e 26 36
e 26 37
e 26 42
e 26 43
e 26 46
e 26 47
e 26 49
e 26 63
e 26 79
e 26 82
e 26 85
e 26 87
e 26 90
e 26 93
e 26 100
e 26 104
e 26 106
e 26 113
e 26 121
e 26 126
e 26 129
e 26 131
e 26 136
e 26 139
e 26 146
e 26 150
e 27 31
e 27 33
e 27 36
e 27 46
e 27 48
e 27 49
e 27 51
e 27 58
e 27 61
e 27 63
e 27 65
e 27 67
e 27 68
e 27 69
e 27 71
e 27 78
e 27 79
e 27 84
e 27 86
e 27 89
e 27 90
e 27 102
e 27 105
e 27 110
e 27 112
e 27 114
e 27 115
e 27 117
e 27 119
e 27 122
e 27 123
e 27 124
e 27 126
e 27 127
e 27 136
e 27 138
e 27 139
e 27 142
e 27 149
e 28 30
e 28 37
e 28 38
e 28 40
e 28 49
e 28 51
e 28 55
e 28 57
e 28 58
e 28 65
e 28 68
e 28 73
e 28 75
e 28 77
e 28 84
e 28 85
e 28 86
e 28 89
e 28 91
e 28 93
e 28 94
e 28 102
e 28 106
e 28 117
e 28 122
e 28 124
e 28 125
e 28 129
e 28 130
e 28 139
e 28 147
e 28 148
e 29 35
e 29 36
e 29 37
e 29 41
e 29 46
e 29 47
e 29 48
e 29 50
e 29 51
e 29 53
e 29 57
e 29 66
e 29 69
e 29 70
e 29 77
e 29 81
e 29 87
e 29 96
e 29 97
e 29 98
e 29 100
e 29 110
e 29 120
e 29 122
e 29 127
e 29 129
e 29 130
e 29 135
e 29 141
e 29 142
e 29 144
e 29 145
e 30 31
e 30 34
e 30 36
e 30 39
e 30 45
e 30 48
e 30 49
e 30 50
e 30 52
e 30 54
e 30 61
e 30 62
e 30 63
e 30 64
e 30 65
e 30 66
e 30 69
e 30 70
e 30 71
e 30 80
e 30 81
e 30 83
e 30 86
e 30 91
e 30 94
e 30 96
e 30 105
e 30 113
e 30 115
e 30 117
e 30 118
e 30 121
e 30 143
e 30 145
e 30 148
e 31 33
e 31 35
e 31 36
e 31 38
e 31 39
e 31 42
e 31 47
e 31 48
e 31 52
e 31 55
e 31 62
e 31 64
e 31 69
e 31 72
e 31 74
e 31 77
e 31 78
e 31 80
e 31 81
e 31 84
e 31 85
e 31 86
e 31 89
e 31 103
e 31 107
e 31 109
e 31 110
e 31 112
e 31 114
e 31 117
e 31 118
e 31 122
e 31 123
e 31 129
e 31 131
e 31 136
e 31 141
e 31 147
e 32 33
e 32 47
e 32 51
e 32 58
e 32 59
e 32 64
e 32 70
e 32 75
e 32 76
e 32 83
e 32 86
e 32 89
e 32 101
e 32 102
e 32 104
e 32 105
e 32 107
e 32 110
e 32 112
e 32 121
e 32 122
e 32 123
e 32 124
e 32 126
e 32 127
e 32 130
e 32 133
e 32 137
e 32 139
e 32 143
e 33 35
e 33 37
e 33 40
e 33 41
e 33 43
e 33 48
e 33 51
e 33 52
e 33 53
e 33 57
e 33 59
e 33 62
e 33 65
e 33 69
e 33 71
e 33 73
e 33 80
e 33 81
e 33 88
e 33 91
e 33 92
e 33 93
e 33 100
e 33 109
e 33 110
e 33 113
e 33 114
e 33 117
e 33 118
e 33 120
e 33 123
e 33 132
e 33 133
e 33 134
e 33 140
e 33 142
e 33 144
e 34 37
e 34 38
e 34 39
e 34 41
e 34 45
e 34 48
e 34 49
e 34 57
e 34 59
e 34 62
e 34 65
e 34 67
e 34 69
e 34 71
e 34 72
e 34 76
e 34 78
e 34 79
e 34 81
e 34 83
e 34 87
e 34 88
e 34 94
e 34 95
e 34 97
e 34 100
e 34 104
e 34 111
e 34 117
e 34 118
e 34 119
e 34 120
e 34 122
e 34 123
e 34 127
e 34 131
e 34 136
e 34 137
e 34 141
e 34 143
e 34 145
e 34 148
e 35 38
e 35 49
e 35 52
e 35 54
e 35 62
e 35 68
e 35 73
e 35 74
e 35 76
e 35 78
e 35 91
e 35 93
e 35 96
e 35 102
e 35 106
e 35 111
e 35 114
e 35 115
e 35 117
e 35 118
e 35 119
e 35 124
e 35 126
e 35 136
e 35 137
e 35 139
e 35 142
e 35 147
e 35 149
e 36 38
e 36 39
e 36 44
e 36 45
e 36 47
e 36 48
e 36 50
e 36 51
e 36 52
e 36 53
e 36 62
e 36 70
e 36 73
e 36 81
e 36 84
e 36 85
e 36 93
e 36 97
e 36 106
e 36 107
e 36 113
e 36 116
e 36 121
e 36 123
e 36 125
e 36 127
e 36 134
e 36 138
e 36 140
e 36 141
e 37 43
e 37 45
e 37 48
e 37 50
e 37 52
e 37 55
e 37 56
e 37 58
e 37 59
e 37 60
e 37 61
e 37 63
e 37 68
e 37 73
e 37 76
e 37 77
e 37 80
e 37 83
e 37 88
e 37 93
e 37 94
e 37 98
e 37 100
e 37 103
e 37 110
e 37 117
e 37 119
e 37 126
e 37 133
e 37 137
e 37 140
e 37 147
e 38 39
e 38 42
e 38 47
e 38 53
e 38 54
e 38 58
e 38 60
e 38 63
e 38 64
e 38 67
e 38 68
e 38 69
e 38 75
e 38 76
e 38 78
e 38 80
e 38 81
e 38 83
e 38 86
e 38 87
e 38 88
e 38 94
e 38 95
e 38 113
e 38 115
e 38 116
e 38 117
e 38 118
e 38 122
e 38 124
e 38 125
e 38 127
e 38 129
e 38 133
e 38 136
e 38 137
e 38 142
e 38 149
e 39 43
e 39 45
e 39 46
e 39 48
e 39 51
e 39 56
e 39 59
e 39 63
e 39 65
e 39 66
e 39 69
e 39 72
e 39 76
e 39 79
e 39 80
e 39 85
e 39 88
e 39 92
e 39 96
e 39 100
e 39 103
e 39 104
e 39 108
e 39 111
e 39 113
e 39 114
e 39 119
e 39 121
e 39 123
e 39 126
e 39 129
e 39 132
e 39 135
e 39 138
e 39 147
e 40 42
e 40 44
e 40 46
e 40 47
e 40 49
e 40 51
e 40 55
e 40 56
e 40 57
e 40 59
e 40 64
e 40 66
e 40 67
e 40 68
e 40 72
e 40 82
e 40 92
e 40 96
e 40 99
e 40 107
e 40 122
e 40 123
e 40 131
e 40 133
e 40 135
e 40 136
e 40 140
e 40 142
e 40 147
e 41 44
e 41 46
e 41 63
e 41 64
e 41 68
e 41 70
e 41 78
e 41 81
e 41 84
e 41 91
e 41 92
e 41 96
e 41 114
e 41 117
e 41 118
e 41 119
e 41 120
e 41 124
e 41 132
e 41 135
e 41 137
e 41 138
e 41 139
e 42 44
e 42 45
e 42 47
e 42 50
e 42 56
e 42 57
e 42 59
e 42 66
e 42 72
e 42 74
e 42 75
e 42 79
e 42 82
e 42 84
e 42 90
e 42 94
e 42 95
e 42 98
e 42 100
e 42 101
e 42 105
e 42 112
e 42 114
e 42 116
e 42 120
e 42 130
e 42 133
e 42 134
e 42 135
e 42 136
e 42 137
e 42 138
e 42 139
e 42 142
e 42 143
e 42 150
e 43 48
e 43 50
e 43 59
e 43 60
e 43 62
e 43 69
e 43 71
e 43 73
e 43 74
e 43 75
e 43 76
e 43 82
e 43 86
e 43 93
e 43 96
e 43 97
e 43 98
e 43 99
e 43 106
e 43 107
e 43 108
e 43 110
e 43 113
e 43 115
e 43 135
e 44 49
e 44 51
e 44 53
e 44 55
e 44 56
e 44 57
e 44 59
e 44 60
e 44 61
e 44 62
e 44 67
e 44 68
e 44 74
e 44 76
e 44 80
e 44 89
e 44 91
e 44 93
e 44 94
e 44 96
e 44 99
e 44 107
e 44 113
e 44 114
e 44 115
e 44 116
e 44 117
e 44 135
e 44 137
e 44 139
e 44 143
e 44 147
e 44 150
e 45 47
e 45 48
e 45 54
e 45 58
e 45 59
e 45 60
e 45 63
e 45 64
e 45 67
e 45 72
e 45 73
e 45 74
e 45 84
e 45 87
e 45 88
e 45 92
e 45 93
e 45 98
e 45 104
e 45 106
e 45 114
e 45 117
e 45 119
e 45 121
e 45 126
e 45 128
e 45 130
e 45 133
e 45 138
e 45 139
e 45 146
e 45 150
e 46 48
e 46 50
e 46 53
e 46 55
e 46 56
e 46 59
e 46 60
e 46 61
e 46 75
e 46 77
e 46 79
e 46 81
e 46 85
e 46 86
e 46 89
e 46 91
e 46 97
e 46 99
e 46 102
e 46 104
e 46 105
e 46 107
e 46 108
e 46 110
e 46 113
e 46 115
e 46 128
e 46 129
e 46 133
e 46 137
e 46 142
e 46 144
e 46 147
e 46 148
e 46 149
e 46 150
e 47 48
e 47 49
e 47 50
e 47 51
e 47 55
e 47 56
e 47 58
e 47 68
e 47 69
e 47 71
e 47 74
e 47 78
e 47 85
e 47 86
e 47 88
e 47 89
e 47 92
e 47 97
e 47 99
e 47 101
e 47 108
e 47 111
e 47 114
e 47 116
e 47 118
e 47 123
e 47 124
e 47 131
e 47 135
e 47 139
e 47 141
e 47 143
e 47 145
e 47 147
e 48 60
e 48 63
e 48 64
e 48 66
e 48 71
e 48 73
e 48 74
e 48 84
e 48 86
e 48 87
e 48 89
e 48 90
e 48 91
e 48 93
e 48 94
e 48 98
e 48 99
e 48 100
e 48 101
e 48 102
e 48 110
e 48 111
e 48 112
e 48 115
e 48 117
e 48 119
e 48 122
e 48 125
e 48 128
e 48 132
e 48 134
e 48 138
e 48 140
e 48 142
e 48 144
e 48 146
e 49 51
e 49 52
e 49 57
e 49 60
e 49 63
e 49 64
e 49 65
e 49 79
e 49 82
e 49 86
e 49 87
e 49 92
e 49 97
e 49 98
e 49 99
e 49 103
e 49 110
e 49 117
e 49 118
e 49 122
e 49 126
e 49 127
e 49 128
e 49 132
e 49 137
e 49 144
e 49 145
e 49 146
e 49 148
e 49 149
e 50 51
e 50 54
e 50 62
e 50 63
e 50 64
e 50 66
e 50 74
e 50 77
e 50 82
e 50 84
e 50 85
e 50 95
e 50 98
e 50 103
e 50 113
e 50 115
e 50 117
e 50 122
e 50 124
e 50 128
e 50 131
e 50 132
e 50 142
e 50 143
e 50 145
e 51 55
e 51 56
e 51 64
e 51 71
e 51 72
e 51 83
e 51 89
e 51 98
e 51 100
e 51 104
e 51 113
e 51 114
e 51 122
e 51 124
e 51 129
e 51 138
e 51 139
e 51 141
e 51 144
e 51 147
e 51 148
e 51 150
e 52 54
e 52 58
e 52 65
e 52 66
e 52 67
e 52 70
e 52 72
e 52 73
e 52 76
e 52 78
e 52 85
e 52 87
e 52 88
e 52 92
e 52 93
e 52 97
e 52 99
e 52 101
e 52 104
e 52 105
e 52 109
e 52 112
e 52 115
e 52 116
e 52 117
e 52 119
e 52 124
e 52 127
e 52 129
e 52 139
e 52 145
e 52 146
e 52 149
e 53 57
e 53 60
e 53 67
e 53 68
e 53 69
e 53 75
e 53 78
e 53 80
e 53 83
e 53 84
e 53 87
e 53 93
e 53 97
e 53 101
e 53 102
e 53 104
e 53 124
e 53 126
e 53 128
e 53 129
e 53 132
e 53 133
e 53 137
e 53 142
e 53 146
e 53 148
e 54 55
e 54 57
e 54 58
e 54 62
e 54 64
e 54 65
e 54 67
e 54 69
e 54 72
e 54 76
e 54 78
e 54 79
e 54 82
e 54 83
e 54 84
e 54 85
e 54 86
e 54 91
e 54 95
e 54 100
e 54 102
e 54 105
e 54 110
e 54 113
e 54 118
e 54 124
e 54 129
e 54 139
e 54 140
e 54 143
e 54 147
e 55 59
e 55 62
e 55 69
e 55 70
e 55 74
e 55 79
e 55 84
e 55 85
e 55 88
e 55 95
e 55 96
e 55 97
e 55 101
e 55 108
e 55 120
e 55 124
e 55 127
e 55 138
e 55 143
e 55 144
e 56 61
e 56 64
e 56 68
e 56 69
e 56 73
e 56 74
e 56 79
e 56 80
e 56 83
e 56 84
e 56 85
e 56 90
e 56 91
e 56 98
e 56 102
e 56 104
e 56 106
e 56 108
e 56 109
e 56 115
e 56 117
e 56 121
e 56 124
e 56 128
e 56 132
e 56 133
e 56 136
e 56 138
e 56 141
e 56 144
e 56 149
e 57 60
e 57 65
e 57 68
e 57 69
e 57 73
e 57 74
e 57 75
e 57 80
e 57 82
e 57 83
e 57 85
e 57 86
e 57 87
e 57 96
e 57 98
e 57 100
e 57 106
e 57 113
e 57 114
e 57 118
e 57 120
e 57 121
e 57 124
e 57 125
e 57 126
e 57 127
e 57 136
e 57 137
e 57 140
e 57 141
e 57 143
e 57 144
e 57 145
e 57 147
e 57 150
e 58 60
e 58 61
e 58 63
e 58 65
e 58 69
e 58 71
e 58 72
e 58 73
e 58 74
e 58 83
e 58 85
e 58 93
e 58 95
e 58 104
e 58 105
e 58 108
e 58 113
e 58 124
e 58 128
e 58 131
e 58 135
e 58 136
e 58 141
e 58 147
e 58 149
e 59 62
e 59 63
e 59 72
e 59 75
e 59 78
e 59 79
e 59 80
e 59 81
e 59 82
e 59 87
e 59 88
e 59 89
e 59 90
e 59 91
e 59 101
e 59 102
e 59 103
e 59 104
e 59 105
e 59 109
e 59 112
e 59 117
e 59 123
e 59 125
e 59 130
e 59 136
e 59 138
e 59 139
e 59 140
e 59 141
e 59 144
e 60 64
e 60 66
e 60 67
e 60 68
e 60 72
e 60 74
e 60 77
e 60 79
e 60 84
e 60 88
e 60 94
e 60 98
e 60 100
e 60 101
e 60 105
e 60 115
e 60 116
e 60 117
e 60 122
e 60 123
e 60 124
e 60 126
e 60 127
e 60 129
e 60 133
e 60 136
e 60 138
e 60 145
e 60 147
e 60 148
e 61 62
e 61 63
e 61 66
e 61 67
e 61 69
e 61 70
e 61 74
e 61 76
e 61 79
e 61 80
e 61 82
e 61 84
e 61 85
e 61 86
e 61 87
e 61 90
e 61 94
e 61 96
e 61 101
e 61 104
e 61 108
e 61 110
e 61 112
e 61 120
e 61 129
e 61 130
e 61 133
e 61 137
e 61 138
e 61 140
e 61 146
e 61 149
e 62 63
e 62 67
e 62 71
e 62 75
e 62 76
e 62 78
e 62 82
e 62 84
e 62 85
e 62 86
e 62 91
e 62 96
e 62 97
e 62 99
e 62 101
e 62 104
e 62 106
e 62 110
e 62 113
e 62 116
e 62 117
e 62 129
e 62 132
e 62 137
e 62 140
e 62 144
e 62 145
e 62 147
e 63 78
e 63 80
e 63 81
e 63 82
e 63 85
e 63 89
e 63 91
e 63 92
e 63 95
e 63 103
e 63 109
e 63 118
e 63 120
e 63 124
e 63 127
e 63 128
e 63 136
e 63 145
e 63 150
e 64 66
e 64 70
e 64 71
e 64 74
e 64 77
e 64 81
e 64 83
e 64 86
e 64 87
e 64 91
e 64 92
e 64 95
e 64 96
e 64 100
e 64 103
e 64 107
e 64 111
e 64 114
e 64 122
e 64 125
e 64 126
e 64 140
e 64 141
e 64 149
e 65 69
e 65 71
e 65 72
e 65 73
e 65 79
e 65 80
e 65 82
e 65 92
e 65 98
e 65 99
e 65 102
e 65 103
e 65 107
e 65 109
e 65 110
e 65 111
e 65 114
e 65 115
e 65 120
e 65 121
e 65 125
e 65 142
e 65 144
e 65 148
e 65 150
e 66 67
e 66 72
e 66 76
e 66 77
e 66 81
e 66 84
e 66 91
e 66 97
e 66 100
e 66 102
e 66 103
e 66 112
e 66 122
e 66 123
e 66 127
e 66 134
e 66 135
e 66 136
e 66 139
e 66 140
e 66 141
e 66 144
e 66 147
e 66 149
e 67 69
e 67 71
e 67 72
e 67 74
e 67 75
e 67 76
e 67 80
e 67 81
e 67 85
e 67 94
e 67 95
e 67 100
e 67 105
e 67 111
e 67 121
e 67 124
e 67 125
e 67 129
e 67 136
e 67 138
e 67 139
e 67 144
e 67 147
e 68 69
e 68 73
e 68 77
e 68 86
e 68 87
e 68 91
e 68 94
e 68 99
e 68 105
e 68 106
e 68 107
e 68 113
e 68 116
e 68 118
e 68 120
e 68 122
e 68 124
e 68 126
e 68 135
e 68 138
e 68 142
e 68 144
e 69 70
e 69 73
e 69 76
e 69 77
e 69 79
e 69 80
e 69 81
e 69 82
e 69 85
e 69 86
e 69 87
e 69 89
e 69 99
e 69 100
e 69 101
e 69 104
e 69 105
e 69 107
e 69 110
e 69 112
e 69 113
e 69 114
e 69 118
e 69 119
e 69 120
e 69 132
e 69 133
e 69 136
e 69 138
e 69 142
e 70 71
e 70 76
e 70 79
e 70 81
e 70 85
e 70 86
e 70 87
e 70 88
e 70 95
e 70 106
e 70 108
e 70 112
e 70 114
e 70 116
e 70 119
e 70 124
e 70 126
e 70 127
e 70 131
e 70 133
e 70 135
e 70 136
e 70 141
e 70 142
e 70 146
e 71 75
e 71 76
e 71 77
e 71 81
e 71 89
e 71 90
e 71 91
e 71 94
e 71 100
e 71 101
e 71 105
e 71 107
e 71 109
e 71 111
e 71 112
e 71 113
e 71 118
e 71 126
e 71 131
e 71 133
e 71 136
e 71 139
e 71 140
e 71 141
e 71 143
e 71 149
e 71 150
e 72 73
e 72 74
e 72 80
e 72 86
e 72 88
e 72 90
e 72 95
e 72 100
e 72 101
e 72 102
e 72 112
e 72 113
e 72 115
e 72 119
e 72 125
e 72 126
e 72 128
e 72 135
e 72 138
e 72 140
e 73 75
e 73 78
e 73 79
e 73 80
e 73 88
e 73 92
e 73 93
e 73 107
e 73 108
e 73 110
e 73 113
e 73 115
e 73 116
e 73 118
e 73 119
e 73 129
e 73 133
e 73 137
e 73 140
e 73 142
e 73 144
e 74 84
e 74 88
e 74 89
e 74 92
e 74 100
e 74 111
e 74 121
e 74 124
e 74 131
e 74 133
e 74 134
e 74 137
e 74 138
e 74 140
e 74 141
e 74 143
e 74 146
e 74 147
e 74 149
e 74 150
e 75 79
e 75 80
e 75 83
e 75 89
e 75 95
e 75 97
e 75 99
e 75 101
e 75 107
e 75 109
e 75 111
e 75 118
e 75 122
e 75 125
e 75 126
e 75 127
e 75 130
e 75 134
e 75 135
e 75 137
e 75 138
e 75 143
e 75 145
e 75 150
e 76 79
e 76 80
e 76 82
e 76 83
e 76 84
e 76 90
e 76 91
e 76 98
e 76 104
e 76 107
e 76 110
e 76 112
e 76 114
e 76 115
e 76 118
e 76 120
e 76 121
e 76 122
e 76 123
e 76 124
e 76 125
e 76 129
e 76 133
e 76 139
e 76 140
e 76 143
e 76 146
e 77 78
e 77 80
e 77 81
e 77 86
e 77 89
e 77 90
e 77 92
e 77 94
e 77 95
e 77 99
e 77 100
e 77 102
e 77 109
e 77 110
e 77 112
e 77 114
e 77 115
e 77 117
e 77 119
e 77 121
e 77 123
e 77 125
e 77 130
e 77 138
e 77 142
e 77 147
e 78 87
e 78 90
e 78 93
e 78 94
e 78 95
e 78 97
e 78 105
e 78 106
e 78 107
e 78 109
e 78 110
e 78 115
e 78 118
e 78 119
e 78 123
e 78 125
e 78 126
e 78 127
e 78 128
e 78 133
e 78 140
e 78 142
e 78 148
e 79 82
e 79 84
e 79 88
e 79 93
e 79 95
e 79 97
e 79 99
e 79 100
e 79 102
e 79 103
e 79 108
e 79 113
e 79 121
e 79 122
e 79 125
e 79 129
e 79 130
e 79 132
e 79 139
e 79 142
e 79 146
e 79 148
e 79 150
e 80 82
e 80 84
e 80 89
e 80 90
e 80 92
e 80 93
e 80 95
e 80 96
e 80 102
e 80 105
e 80 107
e 80 112
e 80 114
e 80 116
e 80 121
e 80 122
e 80 125
e 80 128
e 80 132
e 80 135
e 80 145
e 81 91
e 81 98
e 81 100
e 81 101
e 81 107
e 81 113
e 81 115
e 81 122
e 81 124
e 81 128
e 81 130
e 81 131
e 81 133
e 81 135
e 81 136
e 81 141
e 81 145
e 81 147
e 81 149
e 81 150
e 82 83
e 82 92
e 82 95
e 82 99
e 82 101
e 82 111
e 82 112
e 82 113
e 82 114
e 82 116
e 82 118
e 82 120
e 82 124
e 82 125
e 82 128
e 82 129
e 82 131
e 82 132
e 82 135
e 82 139
e 82 144
e 82 145
e 82 146
e 82 149
e 82 150
e 83 87
e 83 89
e 83 93
e 83 97
e 83 98
e 83 104
e 83 106
e 83 108
e 83 111
e 83 112
e 83 118
e 83 121
e 83 122
e 83 131
e 83 134
e 83 137
e 83 138
e 83 140
e 83 142
e 83 145
e 83 146
e 83 150
e 84 86
e 84 88
e 84 89
e 84 90
e 84 91
e 84 94
e 84 95
e 84 96
e 84 99
e 84 101
e 84 105
e 84 108
e 84 112
e 84 117
e 84 119
e 84 122
e 84 126
e 84 128
e 84 131
e 84 132
e 84 138
e 84 142
e 84 145
e 84 147
e 85 86
e 85 92
e 85 93
e 85 99
e 85 101
e 85 102
e 85 106
e 85 107
e 85 111
e 85 112
e 85 113
e 85 119
e 85 121
e 85 124
e 85 128
e 85 133
e 85 137
e 85 138
e 85 140
e 85 146
e 85 148
e 85 149
e 86 87
e 86 95
e 86 97
e 86 98
e 86 103
e 86 106
e 86 110
e 86 111
e 86 115
e 86 116
e 86 123
e 86 125
e 86 127
e 86 131
e 86 135
e 86 139
e 86 143
e 86 147
e 86 148
e 87 88
e 87 94
e 87 97
e 87 99
e 87 102
e 87 103
e 87 104
e 87 106
e 87 107
e 87 110
e 87 114
e 87 117
e 87 125
e 87 126
e 87 131
e 87 132
e 87 133
e 88 89
e 88 92
e 88 94
e 88 96
e 88 98
e 88 99
e 88 101
e 88 103
e 88 104
e 88 111
e 88 112
e 88 113
e 88 115
e 88 117
e 88 118
e 88 119
e 88 125
e 88 126
e 88 127
e 88 128
e 88 130
e 88 131
e 88 135
e 88 137
e 88 140
e 88 141
e 88 142
e 88 143
e 88 144
e 89 90
e 89 94
e 89 97
e 89 99
e 89 101
e 89 102
e 89 105
e 89 115
e 89 116
e 89 117
e 89 125
e 89 126
e 89 127
e 89 130
e 89 132
e 89 136
e 89 137
e 89 139
e 89 144
e 89 145
e 89 146
e 89 147
e 89 150
e 90 94
e 90 98
e 90 99
e 90 102
e 90 104
e 90 109
e 90 110
e 90 112
e 90 113
e 90 116
e 90 125
e 90 126
e 90 135
e 90 138
e 90 143
e 90 145
e 90 147
e 90 148
e 91 94
e 91 97
e 91 98
e 91 99
e 91 101
e 91 103
e 91 106
e 91 110
e 91 119
e 91 120
e 91 122
e 91 127
e 91 128
e 91 130
e 91 131
e 91 134
e 91 140
e 91 143
e 91 147
e 91 149
e 92 93
e 92 97
e 92 98
e 92 100
e 92 106
e 92 111
e 92 113
e 92 114
e 92 120
e 92 121
e 92 122
e 92 123
e 92 126
e 92 127
e 92 130
e 92 134
e 92 137
e 92 140
e 92 143
e 92 146
e 92 148
e 93 94
e 93 97
e 93 102
e 93 105
e 93 106
e 93 111
e 93 112
e 93 116
e 93 123
e 93 127
e 93 132
e 93 133
e 93 135
e 93 138
e 93 139
e 93 143
e 93 146
e 93 148
e 93 149
e 93 150
e 94 96
e 94 101
e 94 102
e 94 106
e 94 107
e 94 111
e 94 113
e 94 120
e 94 121
e 94 123
e 94 129
e 94 133
e 94 140
e 94 142
e 94 150
e 95 98
e 95 99
e 95 108
e 95 110
e 95 111
e 95 113
e 95 120
e 95 122
e 95 130
e 95 140
e 95 144
e 95 145
e 95 146
e 95 149
e 96 98
e 96 109
e 96 112
e 96 115
e 96 117
e 96 118
e 96 120
e 96 121
e 96 125
e 96 128
e 96 129
e 96 130
e 96 134
e 96 137
e 96 138
e 96 141
e 96 142
e 96 144
e 96 147
e 97 102
e 97 112
e 97 115
e 97 116
e 97 119
e 97 121
e 97 123
e 97 126
e 97 130
e 97 132
e 97 146
e 98 106
e 98 114
e 98 127
e 98 130
e 98 136
e 98 138
e 99 100
e 99 101
e 99 102
e 99 104
e 99 105
e 99 107
e 99 112
e 99 114
e 99 116
e 99 117
e 99 119
e 99 127
e 99 128
e 99 132
e 99 133
e 99 141
e 99 142
e 99 145
e 99 146
e 99 147
e 100 101
e 100 105
e 100 110
e 100 124
e 100 125
e 100 132
e 100 133
e 100 135
e 100 137
e 100 146
e 100 149
e 101 103
e 101 105
e 101 109
e 101 110
e 101 113
e 101 114
e 101 116
e 101 122
e 101 124
e 101 125
e 101 127
e 101 130
e 101 132
e 101 134
e 101 138
e 101 139
e 101 147
e 101 149
e 102 103
e 102 113
e 102 116
e 102 134
e 102 136
e 102 140
e 102 143
e 102 144
e 102 145
e 102 147
e 102 149
e 102 150
e 103 106
e 103 107
e 103 109
e 103 119
e 103 125
e 103 126
e 103 130
e 103 136
e 103 138
e 103 140
e 103 142
e 103 145
e 103 146
e 103 149
e 104 106
e 104 108
e 104 114
e 104 118
e 104 124
e 104 130
e 104 131
e 104 136
e 104 140
e 104 145
e 104 148
e 104 149
e 105 111
e 105 113
e 105 118
e 105 120
e 105 125
e 105 131
e 105 136
e 105 139
e 105 140
e 105 146
e 105 150
e 106 109
e 106 115
e 106 116
e 106 117
e 106 127
e 106 129
e 106 130
e 106 131
e 106 136
e 106 141
e 106 147
e 107 110
e 107 114
e 107 116
e 107 123
e 107 127
e 107 128
e 107 130
e 107 132
e 107 138
e 107 140
e 107 145
e 107 149
e 108 111
e 108 114
e 108 116
e 108 120
e 108 122
e 108 124
e 108 125
e 108 131
e 108 134
e 108 137
e 108 138
e 108 139
e 108 143
e 108 144
e 108 147
e 108 149
e 109 114
e 109 116
e 109 120
e 109 130
e 109 134
e 109 138
e 109 142
e 109 143
e 109 144
e 109 146
e 109 148
e 109 149
e 110 112
e 110 113
e 110 118
e 110 124
e 110 128
e 110 129
e 110 131
e 110 134
e 110 137
e 110 139
e 110 140
e 110 141
e 110 145
e 110 149
e 110 150
e 111 114
e 111 117
e 111 127
e 111 128
e 111 131
e 111 136
e 111 137
e 111 138
e 111 144
e 111 145
e 111 146
e 111 150
e 112 113
e 112 115
e 112 118
e 112 121
e 112 124
e 112 126
e 112 127
e 112 133
e 112 142
e 112 143
e 113 116
e 113 126
e 113 128
e 113 130
e 113 136
e 113 141
e 113 144
e 113 147
e 114 116
e 114 118
e 114 120
e 114 121
e 114 125
e 114 133
e 114 134
e 114 138
e 114 139
e 114 140
e 114 143
e 114 144
e 114 146
e 115 119
e 115 120
e 115 121
e 115 123
e 115 125
e 115 127
e 115 134
e 115 137
e 115 141
e 115 143
e 115 145
e 116 117
e 116 119
e 116 120
e 116 122
e 116 123
e 116 125
e 116 127
e 116 128
e 116 133
e 116 134
e 116 137
e 116 138
e 116 139
e 116 142
e 116 146
e 116 149
e 117 119
e 117 120
e 117 122
e 117 123
e 117 127
e 117 129
e 117 131
e 117 132
e 117 133
e 117 139
e 117 140
e 117 141
e 117 147
e 117 148
e 117 149
e 118 119
e 118 123
e 118 126
e 118 127
e 118 135
e 118 138
e 118 140
e 118 149
e 118 150
e 119 121
e 119 123
e 119 124
e 119 127
e 119 132
e 119 133
e 119 144
e 119 146
e 119 147
e 119 150
e 120 121
e 120 123
e 120 130
e 120 131
e 120 132
e 120 134
e 120 137
e 120 139
e 120 142
e 120 147
e 121 127
e 121 128
e 121 130
e 121 136
e 121 137
e 121 139
e 121 144
e 121 148
e 122 123
e 122 125
e 122 127
e 122 131
e 122 139
e 122 140
e 122 141
e 122 142
e 122 146
e 122 148
e 123 124
e 123 128
e 123 132
e 123 133
e 123 138
e 123 139
e 123 142
e 123 150
e 124 127
e 124 128
e 124 130
e 124 139
e 124 140
e 124 146
e 125 129
e 125 130
e 125 131
e 125 136
e 125 142
e 125 143
e 125 146
e 125 150
e 126 128
e 126 130
e 126 137
e 126 145
e 126 150
e 127 131
e 127 132
e 127 136
e 127 141
e 127 143
e 127 145
e 127 147
e 127 149
e 128 129
e 128 136
e 128 137
e 128 142
e 128 143
e 128 144
e 128 146
e 128 147
e 129 132
e 129 134
e 129 135
e 129 137
e 129 140
e 129 145
e 130 131
e 130 133
e 130 138
e 130 150
e 131 142
e 131 144
e 131 149
e 132 134
e 132 136
e 132 137
e 132 141
e 132 143
e 132 145
e 133 147
e 133 148
e 133 149
e 134 136
e 134 140
e 134 143
e 135 143
e 135 144
e 135 146
e 135 150
e 136 150
e 137 138
e 137 139
e 137 145
e 137 146
e 137 147
e 137 149
e 138 139
e 138 140
e 138 141
e 138 143
e 138 144
e 138 145
e 138 150
e 139 140
e 139 150
e 140 142
e 140 144
e 140 146
e 140 147
e 140 148
e 140 149
e 141 142
e 141 146
e 141 147
e 142 148
e 142 149
e 143 144
e 144 145
e 144 148
e 144 149
e 145 147
e 145 150
e 147 148
e 148 149
